instances/p1/p1_2_20-0.dzn
Alphabet = {A,C,G,T};
ns = 2;
nc = 20;
neighbours = [| I(A),I(A),I(A),I(A),I(A),I(A),I(A),I(A),I(C),I(A),I(A),I(C),I(A),I(C),I(A),I(A),I(C),I(A),I(C),I(A) | I(A),I(A),I(A),I(C),I(A),I(A),I(A),I(A),I(A),I(A),I(G),I(A),I(A),I(A),I(A),I(A),I(C),I(A),I(A),I(A) |];
