instances/p1/p1_2_20-0.txt
{
	"num_strings": 2,
	"alphabet": "ACGT",
	"strings": [
		"AAAAAAAACAACACAACACA",
		"AAACAAAAAAGAAAAACAAA"
	],
	"str_length":[20,20]
}